set F_UNIQ := 6 9 12 ;
set F_NODES[6] := 6 7 8 ;
set F_NODES[9] := 9 10 11 ;
set F_NODES[12] := 12 13 14 ;
#definition

# set
set V := 1 2 3 4 5 ; 	# customer set
set F := 6 9 12 7 8 10 11 13 14 ;#recharging & battery swapping station
set D0 :=0;
set Dsig :=15;


# param
param CV := 200;    		# ECV fixed cost(Topic Given)
param C := 200;   		# ECV max load
param Q := 77.75; 		# ECV/BSV battery level
param h := 1;     		# ECV consumption

param CB := 267;    		# BSV fixed cost(Topic Given)
param Qplun := 5;       # BSV max load(battery)
param hplun := 1;     	# BSV consumption
param W :=155.50;		# BSV battery level

param Ct := 10;    		# travel cost
param Cr := 100;    		# recharging cost
param lamda := 0.00;	# battery swap time
param Cb ;  	    # battery swap cost(BSS/BSV)
param n :=5;	   		# number of customers
param g :=10.41 ;     	# the recharging rate of ECV 



# customer demend
param m :=
0 0
1 10
2 20
3 20
4 30
5 10
6 0
9 0
12 0
7 0
8 0
10 0
11 0
13 0
14 0
15 0;

param e :=
0 0
1 449
2 652
3 647
4 555
5 632
6 0
9 0
12 0
7 0
8 0
10 0
11 0
13 0
14 0
15 0;

param l :=
0 1236
1 504
2 721
3 726
4 612
5 693
6 1236
9 1236
12 1236
7 1236
8 1236
10 1236
11 1236
13 1236
14 1236
15 1236;

param s :=
0 0
1 90
2 90
3 90
4 90
5 90
6 0
9 0
12 0
7 0
8 0
10 0
11 0
13 0
14 0
15 0;

param d : 0 1 2 3 4 5 6 9 12 7 8 10 11 13 14 15 :=
0 0.0000 20.6155 38.0789 38.0789 29.7321 21.5407 0.0000 35.1710 24.0208 0.0000 0.0000 35.1710 35.1710 24.0208 24.0208 0.0000
1 20.6155 0.0000 30.4138 46.0977 48.2597 37.5366 20.6155 31.0161 34.6699 20.6155 20.6155 31.0161 31.0161 34.6699 34.6699 20.6155
2 38.0789 30.4138 0.0000 30.0000 49.7393 59.6154 38.0789 6.0828 60.6383 38.0789 38.0789 6.0828 6.0828 60.6383 60.6383 38.0789
3 38.0789 46.0977 30.0000 0.0000 28.1780 55.4437 38.0789 24.0208 61.1310 38.0789 38.0789 24.0208 24.0208 61.1310 61.1310 38.0789
4 29.7321 48.2597 49.7393 28.1780 0.0000 36.0555 29.7321 44.1022 44.6878 29.7321 29.7321 44.1022 44.1022 44.6878 44.6878 29.7321
5 21.5407 37.5366 59.6154 55.4437 36.0555 0.0000 21.5407 56.6127 9.8489 21.5407 21.5407 56.6127 56.6127 9.8489 9.8489 21.5407
6 0.0000 20.6155 38.0789 38.0789 29.7321 21.5407 0.0000 35.1710 24.0208 0.0000 0.0000 35.1710 35.1710 24.0208 24.0208 0.0000
9 35.1710 31.0161 6.0828 24.0208 44.1022 56.6127 35.1710 0.0000 58.5491 35.1710 35.1710 0.0000 0.0000 58.5491 58.5491 35.1710
12 24.0208 34.6699 60.6383 61.1310 44.6878 9.8489 24.0208 58.5491 0.0000 24.0208 24.0208 58.5491 58.5491 0.0000 0.0000 24.0208
7 0.0000 20.6155 38.0789 38.0789 29.7321 21.5407 0.0000 35.1710 24.0208 0.0000 0.0000 35.1710 35.1710 24.0208 24.0208 0.0000
8 0.0000 20.6155 38.0789 38.0789 29.7321 21.5407 0.0000 35.1710 24.0208 0.0000 0.0000 35.1710 35.1710 24.0208 24.0208 0.0000
10 35.1710 31.0161 6.0828 24.0208 44.1022 56.6127 35.1710 0.0000 58.5491 35.1710 35.1710 0.0000 0.0000 58.5491 58.5491 35.1710
11 35.1710 31.0161 6.0828 24.0208 44.1022 56.6127 35.1710 0.0000 58.5491 35.1710 35.1710 0.0000 0.0000 58.5491 58.5491 35.1710
13 24.0208 34.6699 60.6383 61.1310 44.6878 9.8489 24.0208 58.5491 0.0000 24.0208 24.0208 58.5491 58.5491 0.0000 0.0000 24.0208
14 24.0208 34.6699 60.6383 61.1310 44.6878 9.8489 24.0208 58.5491 0.0000 24.0208 24.0208 58.5491 58.5491 0.0000 0.0000 24.0208
15 0.0000 20.6155 38.0789 38.0789 29.7321 21.5407 0.0000 35.1710 24.0208 0.0000 0.0000 35.1710 35.1710 24.0208 24.0208 0.0000
;

param t : 0 1 2 3 4 5 6 9 12 7 8 10 11 13 14 15 :=
0 0.0000 20.6155 38.0789 38.0789 29.7321 21.5407 0.0000 35.1710 24.0208 0.0000 0.0000 35.1710 35.1710 24.0208 24.0208 0.0000
1 20.6155 0.0000 30.4138 46.0977 48.2597 37.5366 20.6155 31.0161 34.6699 20.6155 20.6155 31.0161 31.0161 34.6699 34.6699 20.6155
2 38.0789 30.4138 0.0000 30.0000 49.7393 59.6154 38.0789 6.0828 60.6383 38.0789 38.0789 6.0828 6.0828 60.6383 60.6383 38.0789
3 38.0789 46.0977 30.0000 0.0000 28.1780 55.4437 38.0789 24.0208 61.1310 38.0789 38.0789 24.0208 24.0208 61.1310 61.1310 38.0789
4 29.7321 48.2597 49.7393 28.1780 0.0000 36.0555 29.7321 44.1022 44.6878 29.7321 29.7321 44.1022 44.1022 44.6878 44.6878 29.7321
5 21.5407 37.5366 59.6154 55.4437 36.0555 0.0000 21.5407 56.6127 9.8489 21.5407 21.5407 56.6127 56.6127 9.8489 9.8489 21.5407
6 0.0000 20.6155 38.0789 38.0789 29.7321 21.5407 0.0000 35.1710 24.0208 0.0000 0.0000 35.1710 35.1710 24.0208 24.0208 0.0000
9 35.1710 31.0161 6.0828 24.0208 44.1022 56.6127 35.1710 0.0000 58.5491 35.1710 35.1710 0.0000 0.0000 58.5491 58.5491 35.1710
12 24.0208 34.6699 60.6383 61.1310 44.6878 9.8489 24.0208 58.5491 0.0000 24.0208 24.0208 58.5491 58.5491 0.0000 0.0000 24.0208
7 0.0000 20.6155 38.0789 38.0789 29.7321 21.5407 0.0000 35.1710 24.0208 0.0000 0.0000 35.1710 35.1710 24.0208 24.0208 0.0000
8 0.0000 20.6155 38.0789 38.0789 29.7321 21.5407 0.0000 35.1710 24.0208 0.0000 0.0000 35.1710 35.1710 24.0208 24.0208 0.0000
10 35.1710 31.0161 6.0828 24.0208 44.1022 56.6127 35.1710 0.0000 58.5491 35.1710 35.1710 0.0000 0.0000 58.5491 58.5491 35.1710
11 35.1710 31.0161 6.0828 24.0208 44.1022 56.6127 35.1710 0.0000 58.5491 35.1710 35.1710 0.0000 0.0000 58.5491 58.5491 35.1710
13 24.0208 34.6699 60.6383 61.1310 44.6878 9.8489 24.0208 58.5491 0.0000 24.0208 24.0208 58.5491 58.5491 0.0000 0.0000 24.0208
14 24.0208 34.6699 60.6383 61.1310 44.6878 9.8489 24.0208 58.5491 0.0000 24.0208 24.0208 58.5491 58.5491 0.0000 0.0000 24.0208
15 0.0000 20.6155 38.0789 38.0789 29.7321 21.5407 0.0000 35.1710 24.0208 0.0000 0.0000 35.1710 35.1710 24.0208 24.0208 0.0000
;